c File: instances/12_0.30_2.col
c
c Description: Random graph of size 12 vertices and P(0.3) of edges between any two vertices.
p col 12 66
e 1 5
e 1 6
e 1 8
e 1 10
e 2 5
e 2 6
e 2 8
e 3 7
e 3 8
e 3 9
e 3 10
e 3 11
e 5 6
e 5 8
e 5 9
e 5 10
e 6 8
e 6 11
e 7 10
e 8 12